p wcnf 108 216 217 
1 -76 37 0 
1 53 93 0 
1 56 -18 0 
1 -94 -29 0 
1 -38 -70 0 
1 -7 -71 0 
1 -35 99 0 
1 -39 52 0 
1 -78 93 0 
1 71 61 0 
1 42 12 0 
1 78 -63 0 
1 -65 13 0 
1 49 -67 0 
1 -77 -69 0 
1 66 -44 0 
1 49 -86 0 
1 26 -98 0 
1 -24 9 0 
1 46 -57 0 
1 44 8 0 
1 100 -7 0 
1 -59 -80 0 
1 -29 -71 0 
1 90 104 0 
1 107 4 0 
1 -62 -25 0 
1 -107 -68 0 
1 -60 7 0 
1 36 -53 0 
1 8 101 0 
1 2 6 0 
1 -65 -25 0 
1 -54 -98 0 
1 -55 -59 0 
1 79 -45 0 
1 60 15 0 
1 -37 -79 0 
1 -62 -63 0 
1 97 78 0 
1 -64 18 0 
1 -87 96 0 
1 -37 -64 0 
1 -4 24 0 
1 -77 56 0 
1 -71 -17 0 
1 38 -36 0 
1 -7 -94 0 
1 23 67 0 
1 74 -32 0 
1 48 69 0 
1 63 103 0 
1 98 -82 0 
1 -56 49 0 
1 -60 -2 0 
1 -49 -53 0 
1 -93 -34 0 
1 99 -44 0 
1 -9 -95 0 
1 -69 107 0 
1 8 -106 0 
1 -100 54 0 
1 -108 -81 0 
1 88 -36 0 
1 -23 83 0 
1 106 -15 0 
1 53 -40 0 
1 89 -50 0 
1 40 44 0 
1 98 31 0 
1 16 -56 0 
1 -56 -8 0 
1 -38 3 0 
1 59 -49 0 
1 35 49 0 
1 -58 -75 0 
1 48 88 0 
1 -107 -63 0 
1 29 17 0 
1 108 -19 0 
1 80 -14 0 
1 -86 93 0 
1 -107 -90 0 
1 -46 55 0 
1 16 76 0 
1 38 -34 0 
1 78 7 0 
1 44 -83 0 
1 107 -105 0 
1 43 -63 0 
1 5 -101 0 
1 -50 13 0 
1 8 106 0 
1 -12 -9 0 
1 -21 107 0 
1 75 82 0 
1 -1 -67 0 
1 -94 99 0 
1 -103 -42 0 
1 -58 -30 0 
1 -91 -90 0 
1 43 -21 0 
1 -31 -105 0 
1 101 -43 0 
1 -4 -60 0 
1 84 -59 0 
1 -1 59 0 
1 -97 -103 0 
1 12 -72 0 
1 -67 -101 0 
1 78 49 0 
1 72 26 0 
1 -59 -12 0 
1 -52 -50 0 
1 -93 -88 0 
1 -105 36 0 
1 -84 -40 0 
1 91 87 0 
1 -84 -76 0 
1 95 -92 0 
1 -95 11 0 
1 -90 61 0 
1 -78 -59 0 
1 -12 -87 0 
1 -1 40 0 
1 101 36 0 
1 23 18 0 
1 33 -15 0 
1 27 -25 0 
1 69 90 0 
1 -101 -98 0 
1 -93 -2 0 
1 -24 21 0 
1 -27 -59 0 
1 -107 -5 0 
1 -52 -22 0 
1 23 101 0 
1 -33 -31 0 
1 -22 -90 0 
1 36 60 0 
1 -50 52 0 
1 11 69 0 
1 -80 68 0 
1 -14 22 0 
1 -14 94 0 
1 -5 47 0 
1 -67 80 0 
1 -81 65 0 
1 -52 23 0 
1 71 89 0 
1 26 -14 0 
1 -26 -99 0 
1 27 84 0 
1 75 -72 0 
1 -103 -22 0 
1 36 55 0 
1 63 23 0 
1 -87 99 0 
1 49 -19 0 
1 61 19 0 
1 -32 53 0 
1 -68 79 0 
1 82 -39 0 
1 92 -97 0 
1 17 -2 0 
1 -65 -107 0 
1 -74 -42 0 
1 5 -60 0 
1 46 68 0 
1 38 -28 0 
1 41 33 0 
1 -64 -28 0 
1 -58 56 0 
1 87 20 0 
1 59 37 0 
1 43 -27 0 
1 26 -5 0 
1 72 16 0 
1 -60 100 0 
1 -74 32 0 
1 24 -108 0 
1 -11 -78 0 
1 -74 -94 0 
1 -48 -106 0 
1 53 78 0 
1 20 -33 0 
1 7 -58 0 
1 -45 -61 0 
1 -7 -89 0 
1 30 -108 0 
1 -10 -29 0 
1 40 -101 0 
1 -6 74 0 
1 46 88 0 
1 -74 -12 0 
1 25 -103 0 
1 -78 94 0 
1 2 49 0 
1 80 52 0 
1 41 54 0 
1 73 71 0 
1 -67 -44 0 
1 -5 -66 0 
1 41 30 0 
1 47 -22 0 
1 12 63 0 
1 -48 62 0 
1 80 -103 0 
1 -43 -17 0 
1 1 84 0 
1 20 17 0 
1 103 71 0 
1 -22 -47 0 
1 10 -89 0 
1 -61 -70 0 
1 68 -100 0 
